NAME 
OBJSENSE MAX
ROWS
 N  OBJ
 L  packing[0]
 L  packing[1]
 L  packing[2]
 L  packing[3]
 L  packing[4]
 L  packing[5]
 L  packing[6]
 L  packing[7]
 L  packing[8]
 L  packing[9]
 L  packing[10]
 L  packing[11]
 L  packing[12]
 L  packing[13]
 L  packing[14]
 L  packing[15]
 L  packing[16]
 L  packing[17]
 L  packing[18]
 L  packing[19]
 L  packing[20]
 L  packing[21]
 L  packing[22]
 L  packing[23]
 L  packing[24]
 L  packing[25]
 L  packing[26]
 L  packing[27]
 L  packing[28]
 L  packing[29]
 L  packing[30]
 L  packing[31]
 L  packing[32]
 L  packing[33]
 L  packing[34]
 L  packing[35]
 L  packing[36]
 L  packing[37]
 L  packing[38]
 L  packing[39]
 L  packing[40]
 L  packing[41]
 L  packing[42]
 L  packing[43]
 L  packing[44]
 L  packing[45]
 L  packing[46]
 L  packing[47]
 L  packing[48]
 L  packing[49]
 L  R56     
COLUMNS
    MARKER    'MARKER'                 'INTORG'
    x[1]      OBJ       42
    x[1]      packing[0]  94
    x[1]      packing[1]  193
    x[1]      packing[2]  126
    x[1]      packing[3]  99
    x[1]      packing[5]  10
    x[1]      packing[7]  78
    x[1]      packing[8]  180
    x[1]      packing[11]  175
    x[1]      packing[12]  155
    x[1]      packing[15]  107
    x[1]      packing[17]  191
    x[1]      packing[19]  170
    x[1]      packing[20]  114
    x[1]      packing[21]  12
    x[1]      packing[22]  22
    x[1]      packing[23]  184
    x[1]      packing[24]  64
    x[1]      packing[25]  124
    x[1]      packing[26]  65
    x[1]      packing[27]  172
    x[1]      packing[29]  117
    x[1]      packing[30]  65
    x[1]      packing[31]  157
    x[1]      packing[32]  166
    x[1]      packing[33]  134
    x[1]      packing[34]  17
    x[1]      packing[36]  4
    x[1]      packing[37]  159
    x[1]      packing[38]  36
    x[1]      packing[39]  32
    x[1]      packing[40]  185
    x[1]      packing[41]  90
    x[1]      packing[43]  168
    x[1]      packing[44]  69
    x[1]      packing[45]  24
    x[1]      packing[48]  140
    x[2]      OBJ       94
    x[2]      packing[0]  66
    x[2]      packing[2]  14
    x[2]      packing[3]  27
    x[2]      packing[6]  122
    x[2]      packing[7]  199
    x[2]      packing[8]  60
    x[2]      packing[9]  78
    x[2]      packing[10]  10
    x[2]      packing[12]  78
    x[2]      packing[14]  32
    x[2]      packing[15]  138
    x[2]      packing[16]  197
    x[2]      packing[17]  13
    x[2]      packing[18]  51
    x[2]      packing[20]  24
    x[2]      packing[21]  167
    x[2]      packing[22]  130
    x[2]      packing[23]  118
    x[2]      packing[24]  185
    x[2]      packing[25]  101
    x[2]      packing[26]  137
    x[2]      packing[27]  63
    x[2]      packing[28]  59
    x[2]      packing[31]  15
    x[2]      packing[32]  128
    x[2]      packing[33]  65
    x[2]      packing[34]  167
    x[2]      packing[36]  174
    x[2]      packing[37]  85
    x[2]      packing[38]  105
    x[2]      packing[39]  165
    x[2]      packing[41]  196
    x[2]      packing[43]  138
    x[2]      packing[44]  65
    x[2]      packing[45]  168
    x[2]      packing[46]  17
    x[2]      packing[47]  78
    x[2]      packing[48]  193
    x[3]      OBJ       1
    x[3]      packing[0]  177
    x[3]      packing[1]  181
    x[3]      packing[2]  108
    x[3]      packing[3]  73
    x[3]      packing[5]  132
    x[3]      packing[7]  124
    x[3]      packing[8]  85
    x[3]      packing[9]  133
    x[3]      packing[11]  28
    x[3]      packing[12]  172
    x[3]      packing[15]  148
    x[3]      packing[16]  8
    x[3]      packing[17]  65
    x[3]      packing[18]  43
    x[3]      packing[20]  7
    x[3]      packing[22]  66
    x[3]      packing[24]  23
    x[3]      packing[27]  172
    x[3]      packing[28]  40
    x[3]      packing[29]  5
    x[3]      packing[31]  183
    x[3]      packing[32]  2
    x[3]      packing[33]  19
    x[3]      packing[35]  90
    x[3]      packing[37]  44
    x[3]      packing[38]  143
    x[3]      packing[39]  111
    x[3]      packing[41]  156
    x[3]      packing[43]  12
    x[3]      packing[44]  176
    x[3]      packing[45]  97
    x[3]      packing[46]  84
    x[3]      packing[47]  68
    x[3]      packing[48]  101
    x[3]      packing[49]  78
    x[4]      OBJ       173
    x[4]      packing[0]  154
    x[4]      packing[3]  147
    x[4]      packing[4]  187
    x[4]      packing[5]  150
    x[4]      packing[6]  18
    x[4]      packing[7]  127
    x[4]      packing[9]  132
    x[4]      packing[10]  64
    x[4]      packing[11]  191
    x[4]      packing[12]  116
    x[4]      packing[13]  161
    x[4]      packing[14]  172
    x[4]      packing[15]  115
    x[4]      packing[16]  25
    x[4]      packing[17]  150
    x[4]      packing[18]  143
    x[4]      packing[19]  141
    x[4]      packing[20]  193
    x[4]      packing[22]  126
    x[4]      packing[23]  189
    x[4]      packing[24]  122
    x[4]      packing[25]  24
    x[4]      packing[26]  60
    x[4]      packing[27]  91
    x[4]      packing[28]  69
    x[4]      packing[30]  53
    x[4]      packing[33]  124
    x[4]      packing[34]  157
    x[4]      packing[37]  7
    x[4]      packing[38]  16
    x[4]      packing[39]  127
    x[4]      packing[40]  20
    x[4]      packing[43]  154
    x[4]      packing[44]  90
    x[4]      packing[45]  143
    x[4]      packing[47]  5
    x[4]      packing[48]  142
    x[4]      packing[49]  174
    x[5]      OBJ       111
    x[5]      packing[1]  149
    x[5]      packing[2]  3
    x[5]      packing[3]  79
    x[5]      packing[6]  53
    x[5]      packing[7]  143
    x[5]      packing[8]  156
    x[5]      packing[10]  146
    x[5]      packing[12]  30
    x[5]      packing[13]  192
    x[5]      packing[14]  133
    x[5]      packing[15]  62
    x[5]      packing[16]  5
    x[5]      packing[17]  53
    x[5]      packing[18]  168
    x[5]      packing[19]  166
    x[5]      packing[20]  6
    x[5]      packing[22]  148
    x[5]      packing[23]  40
    x[5]      packing[24]  169
    x[5]      packing[25]  40
    x[5]      packing[28]  84
    x[5]      packing[34]  43
    x[5]      packing[35]  98
    x[5]      packing[36]  65
    x[5]      packing[37]  59
    x[5]      packing[38]  30
    x[5]      packing[39]  22
    x[5]      packing[40]  87
    x[5]      packing[41]  138
    x[5]      packing[42]  144
    x[5]      packing[43]  179
    x[5]      packing[44]  167
    x[5]      packing[45]  96
    x[5]      packing[46]  54
    x[5]      packing[47]  16
    x[5]      R56       1
    x[6]      OBJ       200
    x[6]      packing[0]  1
    x[6]      packing[1]  174
    x[6]      packing[3]  100
    x[6]      packing[4]  56
    x[6]      packing[5]  121
    x[6]      packing[6]  63
    x[6]      packing[8]  12
    x[6]      packing[9]  164
    x[6]      packing[11]  97
    x[6]      packing[12]  35
    x[6]      packing[13]  134
    x[6]      packing[14]  149
    x[6]      packing[15]  90
    x[6]      packing[16]  16
    x[6]      packing[17]  4
    x[6]      packing[20]  153
    x[6]      packing[21]  26
    x[6]      packing[24]  118
    x[6]      packing[28]  165
    x[6]      packing[29]  105
    x[6]      packing[31]  161
    x[6]      packing[32]  35
    x[6]      packing[34]  94
    x[6]      packing[35]  76
    x[6]      packing[36]  175
    x[6]      packing[37]  90
    x[6]      packing[38]  53
    x[6]      packing[39]  154
    x[6]      packing[40]  1
    x[6]      packing[41]  193
    x[6]      packing[42]  114
    x[6]      packing[44]  144
    x[6]      packing[45]  162
    x[6]      packing[46]  155
    x[6]      packing[47]  97
    x[6]      R56       1
    x[7]      OBJ       135
    x[7]      packing[0]  126
    x[7]      packing[1]  141
    x[7]      packing[2]  146
    x[7]      packing[3]  142
    x[7]      packing[4]  66
    x[7]      packing[6]  18
    x[7]      packing[7]  24
    x[7]      packing[8]  168
    x[7]      packing[9]  117
    x[7]      packing[10]  155
    x[7]      packing[11]  180
    x[7]      packing[12]  198
    x[7]      packing[13]  102
    x[7]      packing[14]  117
    x[7]      packing[16]  114
    x[7]      packing[17]  118
    x[7]      packing[19]  23
    x[7]      packing[20]  44
    x[7]      packing[21]  96
    x[7]      packing[22]  169
    x[7]      packing[23]  129
    x[7]      packing[25]  140
    x[7]      packing[26]  36
    x[7]      packing[27]  8
    x[7]      packing[28]  28
    x[7]      packing[29]  139
    x[7]      packing[30]  153
    x[7]      packing[31]  37
    x[7]      packing[32]  189
    x[7]      packing[33]  116
    x[7]      packing[34]  65
    x[7]      packing[35]  70
    x[7]      packing[36]  108
    x[7]      packing[38]  188
    x[7]      packing[39]  6
    x[7]      packing[41]  12
    x[7]      packing[42]  149
    x[7]      packing[43]  162
    x[7]      packing[44]  6
    x[7]      packing[45]  193
    x[7]      packing[47]  25
    x[8]      OBJ       156
    x[8]      packing[0]  137
    x[8]      packing[1]  154
    x[8]      packing[3]  133
    x[8]      packing[4]  178
    x[8]      packing[5]  196
    x[8]      packing[6]  120
    x[8]      packing[7]  124
    x[8]      packing[8]  80
    x[8]      packing[10]  109
    x[8]      packing[11]  153
    x[8]      packing[12]  170
    x[8]      packing[13]  139
    x[8]      packing[15]  27
    x[8]      packing[17]  130
    x[8]      packing[19]  54
    x[8]      packing[20]  187
    x[8]      packing[22]  64
    x[8]      packing[23]  28
    x[8]      packing[24]  83
    x[8]      packing[25]  157
    x[8]      packing[26]  178
    x[8]      packing[27]  92
    x[8]      packing[31]  161
    x[8]      packing[32]  27
    x[8]      packing[34]  89
    x[8]      packing[35]  16
    x[8]      packing[36]  123
    x[8]      packing[37]  124
    x[8]      packing[38]  36
    x[8]      packing[40]  66
    x[8]      packing[42]  128
    x[8]      packing[43]  73
    x[8]      packing[44]  22
    x[8]      packing[45]  110
    x[8]      packing[46]  154
    x[8]      packing[48]  109
    x[8]      packing[49]  53
    x[9]      OBJ       100
    x[9]      packing[0]  178
    x[9]      packing[1]  145
    x[9]      packing[2]  180
    x[9]      packing[3]  176
    x[9]      packing[4]  61
    x[9]      packing[5]  188
    x[9]      packing[6]  53
    x[9]      packing[8]  13
    x[9]      packing[9]  82
    x[9]      packing[10]  77
    x[9]      packing[11]  168
    x[9]      packing[12]  173
    x[9]      packing[13]  186
    x[9]      packing[14]  181
    x[9]      packing[15]  27
    x[9]      packing[16]  128
    x[9]      packing[17]  33
    x[9]      packing[18]  148
    x[9]      packing[19]  174
    x[9]      packing[20]  98
    x[9]      packing[21]  120
    x[9]      packing[22]  129
    x[9]      packing[23]  126
    x[9]      packing[24]  89
    x[9]      packing[25]  63
    x[9]      packing[27]  172
    x[9]      packing[28]  94
    x[9]      packing[29]  77
    x[9]      packing[30]  159
    x[9]      packing[31]  179
    x[9]      packing[32]  180
    x[9]      packing[33]  57
    x[9]      packing[35]  152
    x[9]      packing[37]  68
    x[9]      packing[38]  10
    x[9]      packing[41]  4
    x[9]      packing[42]  184
    x[9]      packing[45]  171
    x[9]      packing[47]  8
    x[9]      packing[48]  121
    x[9]      packing[49]  183
    x[10]     OBJ       32
    x[10]     packing[0]  5
    x[10]     packing[1]  172
    x[10]     packing[3]  134
    x[10]     packing[4]  45
    x[10]     packing[5]  86
    x[10]     packing[6]  12
    x[10]     packing[7]  94
    x[10]     packing[8]  73
    x[10]     packing[9]  50
    x[10]     packing[10]  127
    x[10]     packing[11]  193
    x[10]     packing[12]  108
    x[10]     packing[13]  152
    x[10]     packing[14]  48
    x[10]     packing[15]  140
    x[10]     packing[16]  42
    x[10]     packing[19]  187
    x[10]     packing[20]  82
    x[10]     packing[21]  123
    x[10]     packing[22]  73
    x[10]     packing[23]  114
    x[10]     packing[26]  168
    x[10]     packing[27]  145
    x[10]     packing[28]  198
    x[10]     packing[29]  22
    x[10]     packing[30]  30
    x[10]     packing[31]  195
    x[10]     packing[32]  106
    x[10]     packing[34]  175
    x[10]     packing[35]  109
    x[10]     packing[38]  43
    x[10]     packing[39]  115
    x[10]     packing[40]  25
    x[10]     packing[41]  116
    x[10]     packing[43]  1
    x[10]     packing[44]  75
    x[10]     packing[46]  58
    x[10]     packing[47]  69
    x[10]     packing[48]  61
    x[10]     packing[49]  57
    x[11]     OBJ       194
    x[11]     packing[3]  194
    x[11]     packing[4]  185
    x[11]     packing[5]  177
    x[11]     packing[6]  118
    x[11]     packing[7]  195
    x[11]     packing[8]  184
    x[11]     packing[9]  110
    x[11]     packing[13]  19
    x[11]     packing[15]  172
    x[11]     packing[16]  107
    x[11]     packing[18]  103
    x[11]     packing[19]  114
    x[11]     packing[20]  94
    x[11]     packing[22]  63
    x[11]     packing[23]  5
    x[11]     packing[24]  67
    x[11]     packing[26]  166
    x[11]     packing[27]  184
    x[11]     packing[28]  35
    x[11]     packing[31]  158
    x[11]     packing[33]  23
    x[11]     packing[34]  46
    x[11]     packing[35]  20
    x[11]     packing[38]  189
    x[11]     packing[39]  72
    x[11]     packing[40]  88
    x[11]     packing[42]  37
    x[11]     packing[43]  62
    x[11]     packing[44]  87
    x[11]     packing[45]  102
    x[11]     packing[46]  183
    x[11]     packing[47]  2
    x[11]     packing[49]  118
    x[11]     R56       1
    x[12]     OBJ       27
    x[12]     packing[0]  27
    x[12]     packing[2]  151
    x[12]     packing[3]  101
    x[12]     packing[4]  144
    x[12]     packing[5]  34
    x[12]     packing[6]  174
    x[12]     packing[8]  49
    x[12]     packing[9]  130
    x[12]     packing[10]  147
    x[12]     packing[11]  177
    x[12]     packing[12]  145
    x[12]     packing[13]  28
    x[12]     packing[14]  82
    x[12]     packing[15]  17
    x[12]     packing[18]  125
    x[12]     packing[19]  13
    x[12]     packing[20]  9
    x[12]     packing[21]  169
    x[12]     packing[22]  103
    x[12]     packing[23]  77
    x[12]     packing[24]  147
    x[12]     packing[25]  32
    x[12]     packing[28]  120
    x[12]     packing[29]  68
    x[12]     packing[31]  126
    x[12]     packing[32]  163
    x[12]     packing[33]  111
    x[12]     packing[34]  116
    x[12]     packing[35]  172
    x[12]     packing[36]  174
    x[12]     packing[39]  43
    x[12]     packing[40]  24
    x[12]     packing[41]  65
    x[12]     packing[43]  153
    x[12]     packing[44]  117
    x[12]     packing[46]  11
    x[12]     packing[47]  105
    x[12]     packing[48]  31
    x[12]     packing[49]  99
    x[13]     OBJ       13
    x[13]     packing[0]  12
    x[13]     packing[1]  28
    x[13]     packing[2]  17
    x[13]     packing[3]  87
    x[13]     packing[4]  199
    x[13]     packing[5]  22
    x[13]     packing[8]  90
    x[13]     packing[9]  120
    x[13]     packing[10]  189
    x[13]     packing[11]  192
    x[13]     packing[13]  32
    x[13]     packing[15]  7
    x[13]     packing[16]  30
    x[13]     packing[17]  16
    x[13]     packing[19]  144
    x[13]     packing[22]  184
    x[13]     packing[23]  79
    x[13]     packing[24]  32
    x[13]     packing[25]  156
    x[13]     packing[27]  155
    x[13]     packing[28]  34
    x[13]     packing[29]  176
    x[13]     packing[31]  21
    x[13]     packing[33]  186
    x[13]     packing[34]  187
    x[13]     packing[35]  110
    x[13]     packing[36]  141
    x[13]     packing[37]  147
    x[13]     packing[39]  34
    x[13]     packing[40]  48
    x[13]     packing[41]  40
    x[13]     packing[42]  77
    x[13]     packing[43]  150
    x[13]     packing[44]  180
    x[13]     packing[45]  104
    x[13]     packing[46]  8
    x[13]     packing[47]  63
    x[13]     packing[48]  65
    x[14]     OBJ       22
    x[14]     packing[0]  181
    x[14]     packing[1]  167
    x[14]     packing[2]  173
    x[14]     packing[3]  36
    x[14]     packing[4]  54
    x[14]     packing[5]  60
    x[14]     packing[6]  116
    x[14]     packing[7]  174
    x[14]     packing[8]  50
    x[14]     packing[9]  103
    x[14]     packing[10]  99
    x[14]     packing[11]  39
    x[14]     packing[12]  104
    x[14]     packing[13]  99
    x[14]     packing[14]  96
    x[14]     packing[15]  90
    x[14]     packing[16]  170
    x[14]     packing[17]  102
    x[14]     packing[18]  149
    x[14]     packing[19]  171
    x[14]     packing[20]  4
    x[14]     packing[21]  106
    x[14]     packing[22]  135
    x[14]     packing[23]  70
    x[14]     packing[25]  3
    x[14]     packing[26]  69
    x[14]     packing[27]  69
    x[14]     packing[28]  112
    x[14]     packing[29]  94
    x[14]     packing[30]  3
    x[14]     packing[31]  143
    x[14]     packing[32]  117
    x[14]     packing[34]  164
    x[14]     packing[35]  184
    x[14]     packing[38]  145
    x[14]     packing[40]  82
    x[14]     packing[41]  110
    x[14]     packing[44]  38
    x[14]     packing[45]  183
    x[14]     packing[48]  166
    x[15]     OBJ       59
    x[15]     packing[0]  109
    x[15]     packing[1]  6
    x[15]     packing[2]  17
    x[15]     packing[3]  151
    x[15]     packing[4]  77
    x[15]     packing[5]  101
    x[15]     packing[6]  165
    x[15]     packing[7]  56
    x[15]     packing[8]  64
    x[15]     packing[9]  171
    x[15]     packing[10]  36
    x[15]     packing[11]  27
    x[15]     packing[12]  184
    x[15]     packing[13]  42
    x[15]     packing[14]  42
    x[15]     packing[15]  72
    x[15]     packing[16]  120
    x[15]     packing[17]  1
    x[15]     packing[18]  126
    x[15]     packing[19]  97
    x[15]     packing[20]  157
    x[15]     packing[21]  120
    x[15]     packing[22]  127
    x[15]     packing[23]  190
    x[15]     packing[25]  90
    x[15]     packing[26]  11
    x[15]     packing[27]  107
    x[15]     packing[28]  150
    x[15]     packing[29]  166
    x[15]     packing[30]  78
    x[15]     packing[31]  127
    x[15]     packing[32]  163
    x[15]     packing[33]  124
    x[15]     packing[35]  38
    x[15]     packing[36]  22
    x[15]     packing[38]  94
    x[15]     packing[40]  185
    x[15]     packing[41]  109
    x[15]     packing[42]  70
    x[15]     packing[43]  143
    x[15]     packing[44]  36
    x[15]     packing[47]  48
    x[15]     packing[48]  22
    x[15]     packing[49]  109
    x[16]     OBJ       159
    x[16]     packing[0]  103
    x[16]     packing[1]  80
    x[16]     packing[2]  170
    x[16]     packing[3]  22
    x[16]     packing[5]  114
    x[16]     packing[6]  100
    x[16]     packing[7]  138
    x[16]     packing[8]  153
    x[16]     packing[9]  6
    x[16]     packing[10]  12
    x[16]     packing[12]  5
    x[16]     packing[14]  134
    x[16]     packing[15]  125
    x[16]     packing[16]  108
    x[16]     packing[17]  95
    x[16]     packing[18]  177
    x[16]     packing[19]  147
    x[16]     packing[20]  129
    x[16]     packing[21]  25
    x[16]     packing[22]  45
    x[16]     packing[24]  27
    x[16]     packing[25]  96
    x[16]     packing[26]  64
    x[16]     packing[27]  131
    x[16]     packing[28]  146
    x[16]     packing[29]  51
    x[16]     packing[30]  16
    x[16]     packing[31]  86
    x[16]     packing[32]  161
    x[16]     packing[34]  65
    x[16]     packing[35]  59
    x[16]     packing[36]  99
    x[16]     packing[37]  37
    x[16]     packing[39]  12
    x[16]     packing[40]  26
    x[16]     packing[41]  125
    x[16]     packing[42]  92
    x[16]     packing[43]  117
    x[16]     packing[46]  107
    x[16]     packing[47]  183
    x[16]     packing[48]  57
    x[16]     packing[49]  35
    x[16]     R56       1
    x[17]     OBJ       165
    x[17]     packing[0]  69
    x[17]     packing[1]  133
    x[17]     packing[3]  161
    x[17]     packing[4]  123
    x[17]     packing[5]  174
    x[17]     packing[6]  99
    x[17]     packing[7]  153
    x[17]     packing[8]  63
    x[17]     packing[9]  112
    x[17]     packing[11]  187
    x[17]     packing[12]  179
    x[17]     packing[13]  20
    x[17]     packing[15]  29
    x[17]     packing[17]  91
    x[17]     packing[18]  99
    x[17]     packing[19]  155
    x[17]     packing[20]  184
    x[17]     packing[21]  132
    x[17]     packing[24]  198
    x[17]     packing[25]  105
    x[17]     packing[26]  54
    x[17]     packing[30]  62
    x[17]     packing[31]  163
    x[17]     packing[33]  199
    x[17]     packing[34]  44
    x[17]     packing[35]  51
    x[17]     packing[36]  179
    x[17]     packing[37]  32
    x[17]     packing[38]  157
    x[17]     packing[39]  124
    x[17]     packing[40]  161
    x[17]     packing[41]  164
    x[17]     packing[42]  2
    x[17]     packing[45]  85
    x[17]     packing[46]  31
    x[17]     packing[47]  126
    x[18]     OBJ       70
    x[18]     packing[0]  138
    x[18]     packing[1]  74
    x[18]     packing[2]  38
    x[18]     packing[3]  180
    x[18]     packing[4]  24
    x[18]     packing[5]  51
    x[18]     packing[6]  99
    x[18]     packing[7]  69
    x[18]     packing[8]  121
    x[18]     packing[10]  87
    x[18]     packing[11]  35
    x[18]     packing[12]  162
    x[18]     packing[13]  197
    x[18]     packing[14]  63
    x[18]     packing[17]  132
    x[18]     packing[18]  65
    x[18]     packing[19]  103
    x[18]     packing[21]  180
    x[18]     packing[22]  35
    x[18]     packing[23]  73
    x[18]     packing[24]  72
    x[18]     packing[25]  81
    x[18]     packing[26]  9
    x[18]     packing[27]  155
    x[18]     packing[30]  162
    x[18]     packing[31]  57
    x[18]     packing[33]  102
    x[18]     packing[34]  14
    x[18]     packing[35]  96
    x[18]     packing[36]  151
    x[18]     packing[37]  141
    x[18]     packing[38]  197
    x[18]     packing[40]  91
    x[18]     packing[41]  24
    x[18]     packing[42]  29
    x[18]     packing[43]  48
    x[18]     packing[44]  5
    x[18]     packing[45]  88
    x[18]     packing[46]  121
    x[18]     packing[48]  166
    x[18]     packing[49]  88
    x[19]     OBJ       47
    x[19]     packing[1]  148
    x[19]     packing[2]  158
    x[19]     packing[4]  94
    x[19]     packing[6]  157
    x[19]     packing[9]  8
    x[19]     packing[10]  155
    x[19]     packing[11]  151
    x[19]     packing[12]  182
    x[19]     packing[13]  110
    x[19]     packing[14]  197
    x[19]     packing[16]  171
    x[19]     packing[17]  33
    x[19]     packing[18]  76
    x[19]     packing[19]  40
    x[19]     packing[20]  23
    x[19]     packing[21]  90
    x[19]     packing[23]  139
    x[19]     packing[24]  159
    x[19]     packing[25]  73
    x[19]     packing[26]  153
    x[19]     packing[28]  168
    x[19]     packing[29]  43
    x[19]     packing[30]  165
    x[19]     packing[31]  181
    x[19]     packing[32]  38
    x[19]     packing[33]  117
    x[19]     packing[34]  60
    x[19]     packing[35]  199
    x[19]     packing[37]  4
    x[19]     packing[39]  23
    x[19]     packing[40]  181
    x[19]     packing[42]  75
    x[19]     packing[43]  66
    x[19]     packing[44]  132
    x[19]     packing[45]  182
    x[19]     packing[47]  78
    x[20]     OBJ       64
    x[20]     packing[0]  35
    x[20]     packing[1]  19
    x[20]     packing[2]  197
    x[20]     packing[3]  57
    x[20]     packing[5]  177
    x[20]     packing[6]  91
    x[20]     packing[7]  159
    x[20]     packing[9]  38
    x[20]     packing[10]  65
    x[20]     packing[11]  142
    x[20]     packing[13]  168
    x[20]     packing[16]  178
    x[20]     packing[17]  122
    x[20]     packing[18]  73
    x[20]     packing[19]  199
    x[20]     packing[20]  95
    x[20]     packing[22]  84
    x[20]     packing[25]  127
    x[20]     packing[27]  136
    x[20]     packing[28]  142
    x[20]     packing[29]  40
    x[20]     packing[31]  57
    x[20]     packing[32]  127
    x[20]     packing[33]  37
    x[20]     packing[34]  198
    x[20]     packing[35]  180
    x[20]     packing[37]  102
    x[20]     packing[38]  137
    x[20]     packing[40]  109
    x[20]     packing[41]  11
    x[20]     packing[42]  186
    x[20]     packing[43]  64
    x[20]     packing[45]  62
    x[20]     packing[47]  171
    x[20]     packing[48]  119
    x[20]     packing[49]  53
    MARKER    'MARKER'                 'INTEND'
RHS
    RHS1      packing[0]  806
    RHS1      packing[1]  982
    RHS1      packing[2]  749
    RHS1      packing[3]  1050
    RHS1      packing[4]  747
    RHS1      packing[5]  897
    RHS1      packing[6]  789
    RHS1      packing[7]  929
    RHS1      packing[8]  801
    RHS1      packing[9]  777
    RHS1      packing[10]  739
    RHS1      packing[11]  1068
    RHS1      packing[12]  1098
    RHS1      packing[13]  891
    RHS1      packing[14]  723
    RHS1      packing[15]  683
    RHS1      packing[16]  710
    RHS1      packing[17]  675
    RHS1      packing[18]  773
    RHS1      packing[19]  1049
    RHS1      packing[20]  802
    RHS1      packing[21]  683
    RHS1      packing[22]  852
    RHS1      packing[23]  781
    RHS1      packing[24]  778
    RHS1      packing[25]  706
    RHS1      packing[26]  585
    RHS1      packing[27]  926
    RHS1      packing[28]  822
    RHS1      packing[29]  552
    RHS1      packing[30]  473
    RHS1      packing[31]  1104
    RHS1      packing[32]  801
    RHS1      packing[33]  707
    RHS1      packing[34]  851
    RHS1      packing[35]  860
    RHS1      packing[36]  708
    RHS1      packing[37]  550
    RHS1      packing[38]  790
    RHS1      packing[39]  520
    RHS1      packing[40]  690
    RHS1      packing[41]  777
    RHS1      packing[42]  644
    RHS1      packing[43]  845
    RHS1      packing[44]  705
    RHS1      packing[45]  985
    RHS1      packing[46]  492
    RHS1      packing[47]  571
    RHS1      packing[48]  747
    RHS1      packing[49]  524
    RHS1      R56       3
BOUNDS
 BV BND1      x[1]    
 BV BND1      x[2]    
 BV BND1      x[3]    
 BV BND1      x[4]    
 BV BND1      x[5]    
 BV BND1      x[6]    
 BV BND1      x[7]    
 BV BND1      x[8]    
 BV BND1      x[9]    
 BV BND1      x[10]   
 BV BND1      x[11]   
 BV BND1      x[12]   
 BV BND1      x[13]   
 BV BND1      x[14]   
 BV BND1      x[15]   
 BV BND1      x[16]   
 BV BND1      x[17]   
 BV BND1      x[18]   
 BV BND1      x[19]   
 BV BND1      x[20]   
ENDATA
